12046 11718 11043
12319 12202 10238
11547 11972 11307
12309 13455 9490
12522 12857 8669
10527 14193 9897
10423 13535 10704
10614 12818 11292
12694 12186 8405
12005 12821 10494
12341 13394 9122
10996 13340 10817
11719 12774 10874
12077 13731 9726
12391 13112 9470
12743 11032 9461
10848 12031 11582
10930 11688 11562
11919 12092 10997
11239 13565 10577
12749 11528 9337
12237 12545 10258
11282 12202 11420
11629 11629 11287
11443 12770 11200
11226 14134 9622
12140 12851 10267
12552 12585 8999
